p cnf 100 30
x 2 -4 6 -7 -9 14 15 16 18 -19 22 24 25 -28 -29 30 -32 -33 34 35 36 -38 -39 40 43 -45 46 -47 49 52 -54 55 57 -59 -67 71 73 -74 75 -77 81 -82 86 87 89 -90 91 -92 -98 100 0
x -1 2 -3 -5 -10 -11 16 -18 20 -21 -25 26 -27 28 29 31 -32 -33 40 -41 -42 -46 -47 -48 49 50 51 -52 -53 55 -59 -60 64 -67 69 -74 -78 81 -82 -83 88 89 94 -95 -99 0
x 4 -6 -7 -8 -10 -11 13 -14 -15 16 -17 -20 -26 27 28 -32 -35 37 -38 44 -46 47 -51 54 56 59 60 -61 62 63 -67 68 78 80 82 84 -85 86 -89 -90 94 95 -97 98 0
x 2 7 -8 9 10 11 -12 13 14 16 -17 -18 -21 -22 23 25 27 28 31 33 -34 35 -36 38 -41 -42 43 44 46 -52 -53 54 -56 57 58 -59 61 -62 -63 65 66 68 -74 75 -78 81 -82 -84 -85 87 -89 91 92 93 -99 0
x -1 -2 -3 4 6 -7 -8 -11 12 -14 17 22 23 -24 27 -28 29 30 -31 -32 33 34 35 -36 -37 38 40 41 45 46 -48 -50 53 56 59 -61 -62 63 64 67 68 -69 72 74 75 78 -79 -80 81 -87 -89 90 -91 -92 93 -95 -96 0
x -1 3 5 -7 -9 -14 15 -17 -19 -21 -27 -28 29 -31 -33 -37 -39 -41 -42 44 47 49 -51 52 53 -55 56 -57 -58 61 65 67 -69 -71 -73 -74 78 -79 85 -86 88 91 92 93 94 96 97 98 -100 0
x 1 -3 5 6 10 -12 13 14 -15 16 17 -19 21 -26 -28 -30 -31 -33 -34 36 -37 -38 -39 40 -43 44 45 -46 -50 -52 53 59 -62 -63 64 67 -68 69 -71 72 73 -78 -79 -81 83 86 87 -88 -90 91 92 93 94 -95 -97 -98 -99 0
x 2 5 12 13 14 15 17 -18 -19 -20 -21 -22 -23 24 -30 -32 -34 35 -36 -38 39 -41 -42 -44 -45 46 -47 -48 -53 -54 -55 58 -60 -61 -62 -63 64 -67 68 69 -71 72 -74 76 82 -83 -85 86 92 93 -95 97 99 0
x -1 2 -3 12 13 -14 15 -16 -17 19 -21 -22 24 -28 29 31 32 -34 36 -39 -40 -41 -42 49 50 56 59 60 61 62 66 -68 -69 -70 71 72 -73 -75 78 79 81 -83 85 86 -88 89 -90 -91 -92 -93 -95 -97 -98 -100 0
x 5 -6 -8 -11 -12 -13 -14 -15 18 20 21 22 24 31 -32 33 -35 -36 38 41 -46 -47 -48 49 54 -55 57 68 -70 72 75 -77 -78 -79 -81 -82 83 -87 88 89 -92 93 94 -95 -96 98 -100 0
x -1 -3 -7 8 9 -11 -12 -15 16 19 -21 23 26 -28 30 -33 40 41 43 44 46 48 -50 51 -53 59 60 -64 -65 68 69 70 71 -74 -75 78 -79 -83 85 -87 88 89 -90 91 92 93 97 0
x 1 -4 11 13 14 15 -16 17 -18 -19 -23 24 25 -26 27 -28 29 -31 32 34 -36 38 -39 42 43 -46 -49 -50 51 53 54 62 -63 -67 68 71 74 -75 77 -80 81 82 85 -88 89 -90 -93 -94 -96 -97 -98 0
x 3 -7 8 -9 10 -12 -13 15 16 18 -19 21 23 -24 -25 -26 27 -28 29 -30 -32 34 36 38 -39 -40 -41 -42 46 -49 53 55 -57 58 -59 60 -65 -68 69 72 73 75 76 -77 -84 -88 -90 91 -93 -94 95 96 -98 100 0
x 3 5 -8 10 11 -14 -15 17 18 20 21 -22 23 24 -25 -26 -28 29 -35 36 37 -38 -40 41 44 46 -52 -54 55 -56 -57 -58 -59 -60 61 -62 65 67 -68 -69 70 -72 -73 -76 77 79 -81 82 84 86 -87 88 89 94 -98 0
x 2 -3 5 7 -8 -10 -11 -15 -16 20 -22 -23 -24 25 -28 -31 33 -34 39 -40 -41 -44 46 -48 -49 -52 54 56 -59 -62 63 -66 -67 -70 72 74 76 77 -78 85 89 -90 -91 -92 -95 96 -97 98 0
x 1 -2 3 4 -5 -6 7 -8 -9 10 11 -16 -17 -19 21 22 -26 30 31 32 34 -35 37 -38 39 40 -42 -43 -44 45 49 51 -54 -58 -60 62 63 -65 67 68 -70 71 75 79 -80 -86 -87 -88 90 93 95 96 -97 98 0
x 1 3 4 -9 -10 -11 12 -14 -20 21 23 24 -26 27 -31 -32 34 35 -36 38 41 42 -44 -45 -46 -48 49 52 57 -58 60 61 -68 -69 -70 71 73 81 -82 84 -85 86 -92 -93 -94 -95 -96 98 100 0
x 1 2 -3 -5 -6 7 8 -9 12 14 15 17 -18 19 -20 -21 24 -25 -26 -31 -32 -33 35 -36 38 -39 40 -41 42 43 45 -46 -48 -49 50 -51 52 -53 -54 55 -58 -59 -60 -63 64 65 -66 -70 -71 -72 77 78 -79 80 -81 -82 83 86 87 89 -90 -95 -97 -100 0
x -1 3 5 -6 -10 -13 -14 16 -19 21 23 24 -25 30 -32 -36 37 -38 39 -40 41 47 -48 49 -51 -58 59 60 61 63 -65 66 67 -69 71 -74 -76 -81 -82 -83 84 -88 -91 92 93 94 95 -97 -98 0
x 1 -3 4 6 -9 -10 12 13 14 -15 -21 -22 -27 28 -30 -31 -34 36 -40 41 42 43 -44 45 50 52 -53 55 57 58 -64 -65 69 71 -74 -76 77 79 80 -81 -84 87 95 -96 98 99 100 0
x -2 4 6 -9 12 -15 -16 17 -19 21 -22 -25 26 28 -30 32 -35 36 -37 38 -39 40 -41 -42 46 -48 50 53 -55 -56 57 61 -64 67 -68 71 -72 74 78 79 -80 -81 -82 83 -84 -86 87 -88 89 90 91 92 -93 94 95 96 -98 100 0
x 1 -7 9 10 11 -13 14 15 16 22 -23 26 27 -28 -29 30 31 32 33 35 -39 41 -42 43 -45 -49 -55 -56 -58 59 -63 -64 -68 69 70 -73 -75 77 78 80 81 84 86 -87 88 91 -92 -94 -96 -97 98 0
x -1 3 -4 -5 6 -7 -8 9 -11 -12 -13 14 15 16 18 19 21 23 30 -32 -33 34 35 36 -37 38 -40 41 43 -45 -50 -51 52 -54 -55 56 -57 58 59 -62 -63 -67 68 -69 71 72 -74 -78 79 80 81 -82 85 -86 -89 90 -91 93 -94 -95 -96 -98 99 100 0
x -1 5 8 -9 -10 -11 12 13 14 15 17 19 20 21 -24 -25 -26 -27 -28 29 30 -31 -33 36 -39 40 -41 -42 -45 -47 48 49 53 -57 62 -64 -67 69 71 72 76 -79 -82 84 85 86 87 88 -93 94 -95 96 97 98 0
x 1 -2 3 -5 6 -9 -11 16 -17 -18 -23 -24 -25 28 -29 -30 -31 33 -34 35 40 -42 45 46 48 51 -52 -54 55 56 -59 -60 -61 -63 -64 65 -67 68 -69 -70 71 -73 -75 -76 -79 -81 -88 89 -90 -92 93 94 -95 -96 -97 98 100 0
x 1 3 -6 7 8 -9 -10 12 13 -15 -18 20 -22 -26 27 30 -34 -35 -37 38 39 41 -42 44 45 -47 50 -51 52 -55 -56 -59 -61 -62 63 -66 67 -69 -70 -75 -78 79 80 -81 -83 -84 -87 88 -90 -91 -92 96 -100 0
x -1 2 -3 -5 -6 -9 -12 -14 16 -17 19 -21 24 -25 28 31 32 33 37 -38 -39 40 -42 44 45 46 51 52 55 -56 58 61 -62 64 67 -69 -72 73 -75 -81 -82 84 -85 -87 -90 91 -92 -95 -96 97 0
x -2 3 -4 5 -6 10 -11 13 14 -18 28 -30 35 38 -39 40 -41 -45 46 47 -48 49 -52 -55 -56 57 -59 60 -63 -64 -69 72 73 -75 77 -78 80 -83 -84 -85 -87 -88 91 -93 -94 -96 -98 -100 0
x -6 8 9 10 13 15 -17 -20 24 -25 -26 27 -28 -33 35 -37 38 39 42 43 45 46 -50 -51 -53 55 56 58 -59 60 61 -64 -67 -70 -72 77 80 -82 -83 85 -87 88 89 90 -91 -94 -98 99 0
x 1 -2 -4 5 7 -9 10 -12 15 16 -17 18 21 25 26 27 33 34 -36 -37 -40 41 42 43 46 49 50 53 54 -55 -56 57 -60 -62 -64 66 -68 71 75 -76 -78 -82 87 -88 -89 94 97 0
g -30